10
2147483647 92 7 16 97 3 30 24 58 7 
92 2147483647 57 94 17 75 60 34 77 83 
7 57 2147483647 36 54 78 60 51 38 58 
16 94 36 2147483647 65 61 36 60 66 100 
97 17 54 65 2147483647 20 54 33 34 54 
3 75 78 61 20 2147483647 20 18 42 75 
30 60 60 36 54 20 2147483647 61 90 37 
24 34 51 60 33 18 61 2147483647 92 59 
58 77 38 66 34 42 90 92 2147483647 4 
7 83 58 100 54 75 37 59 4 2147483647 
